
  32    1
  10

   0   0   4 2 3 4 5 
   8   2   2 7 6 
   5   4   4 13 10 8 7 
   5   8   3 13 8 7 
   9  10   6 19 14 13 12 10 9 
   6  10   5 14 13 10 9 8 
   1   5   4 19 14 12 9 
   6  10   2 19 11 
  10  10   1 11 
   6   9   1 11 
   4   8   3 17 16 15 
   4  10   3 22 18 15 
   3   6   4 23 22 20 18 
   2   9   4 28 26 22 21 
   9  10   3 26 23 20 
   6   9   3 26 22 20 
   8   6   1 18 
   5   4   3 28 26 21 
  10   9   3 28 22 21 
   8   9   3 28 27 24 
   9  10   3 31 27 24 
   7  10   2 31 24 
   8  10   2 27 25 
   6  10   1 25 
   7  10   2 30 29 
   1  10   2 30 29 
   1   4   1 29 
   5   4   1 31 
   4  10   1 32
   9   4   1 32
  10  10   1 32
   0   0   0 
